528918
62193
482812
786180
869908
546146
524161
864726
648710
350633
452773
869027
51556
426482
352885
553020
533262
433657
983476
47892
180145
594190
413262
304773
844674
80807
316774
431993
369064
746465
479820
476539
707510
93973
363914
280026
663830
469523
155357
760823
691073
133310
75521
797676
117674
551684
707749
475609
395642
193079
957246
116172
488694
153421
146232
139916
230078
718897
922439
507331
726767
841539
686107
504197
417319
6835
350065
723713
224040
549173
288454
649731
362773
391073
452774
280867
137306
268395
996963
831374
438697
235450
248930
489326
757599
778214
549392
359737
949765
313619
657906
50643
98289
420581
765465
487521
399437
956063
252147
637803
